Traveling Salesman Problem/TSP_generados/Aleatorio1621103665_17.tsp
NAME: Aleatorio1621103665_17.tsp
COMMENT: Randomly generated scenario
TYPE: TSP
DIMENSION: 17
EDGE_WEIGHT_TYPE: ATT
NODE_COORD_SECTION
1 47.45 36.92
2 40.5 34.87
3 35.37 39.28
4 38.11 17.5
5 14.79 12.72
6 5.99 15.81
7 37.39 23.56
8 0.75 26.22
9 3.44 37.31
10 17.81 38.94
11 31.56 31.94
12 30.05 15.19
13 3.16 36.12
14 31.03 6.39
15 40.64 24.15
16 24.49 38.73
17 39.6 39.65
