Traveling Salesman Problem/TSP_generados/Aleatorio1621103665_17.opt.tour
NAME: Aleatorio1621103665_17.opt.tour
COMMENT: Optimal solution for Aleatorio1621103665_17 (146.20960106870152)
TYPE: TOUR
DIMENSION: 17
TOUR_SECTION
1 2 15 7 4 12 14 5 6 8 13 9 10 16 11 3 17
-1
EOF
